data;
set WEIGHTS := x0 x1 x2 x3 x4 x5 x6 x7 x8 x9;
param:  cost :=
  x0  911948
  x1  246265
  x2  58263
  x3  843452
  x4  92003
  x5  457358
  x6  672309
  x7  928489
  x8  290732
  x9  582524;
param cap := 2500000;